\ Model Routes
\ LP format - for model browsing. Use MPS format to capture full model detail.
Maximize
  1533.228206194839 R{0,0} + 2591.679024458567 R{0,1}
   + 2591.679024458567 R{0,2} - 249.2301939667805 R{0,3}
   - 141.9824585376797 R{0,4} + 958.006944143963 R{0,5}
   + 958.006944143963 R{0,6} + 2391.42963769878 R{0,7}
   + 871.4653828104026 R{0,8} + 197.1118416493682 R{0,9}
   + 2219.565059259677 R{0,10} + 187.6868574053543 R{0,11}
   + 1661.906110363923 R{0,12} + 782.9212818892839 R{0,13}
   + 2318.898556101076 R{0,14} + 2470.9176428913 R{0,15}
   + 1460.819546070009 R{0,16} + 882.3712646059596 R{0,17}
   + 1586.617076799831 R{0,18} + 995.5091064635797 R{0,19}
   + 1230.680637201261 R{0,20} + 1865.960218498627 R{0,21}
   + 1591.169926572796 R{0,22} - 256.140831891889 R{1,0}
   + 41.44651618699046 R{1,1} + 468.947430945026 R{1,2}
   + 788.6501778656678 R{1,3} + 570.6082164730051 R{1,4}
   + 255.4672478122766 R{1,5} + 273.8868897173979 R{1,6}
   + 544.0669767572493 R{1,7} + 984.0576478178625 R{1,8}
   + 662.2442396255781 R{1,9} + 750.88263527078 R{1,10}
   + 950.9974198472862 R{1,11} + 409.6237278943443 R{1,12}
   + 655.391082452362 R{1,13} - 278.4443928850388 R{2,0}
   + 96.64804243541232 R{2,1} + 1554.55142910273 R{2,2}
   + 892.6424592665308 R{2,3} + 481.8339840066735 R{2,4}
   + 1127.167179019262 R{2,5} + 188.8677732867749 R{2,6}
   + 909.4037802224536 R{2,7} + 680.7477114741102 R{2,8}
   + 124.111107645844 R{2,9} + 395.796393489625 R{2,10}
   + 166.915855543099 R{2,11} + 499.1100199466441 R{2,12}
   + 915.2724312268413 R{2,13} + 124.111107645844 R{2,14}
   - 260.2482995389823 R{3,0} + 701.3067653295128 R{3,1}
   + 1230.485940651614 R{3,2} + 643.6066394260856 R{3,3}
   + 451.347109648568 R{3,4} + 330.6170050054958 R{3,5}
   + 426.6297224963732 R{3,6} + 1212.439507277819 R{3,7}
   + 933.9651209851472 R{3,8} + 755.5407054555297 R{3,9}
   + 830.7076207394684 R{3,10} + 1409.261477590347 R{3,11}
   - 242.5208875955131 R{4,0} + 1066.379443184683 R{4,1}
   + 1576.196574514046 R{4,2} + 1529.283360765447 R{4,3}
   + 1438.32217442406 R{4,4} + 1157.773824926901 R{4,5}
   + 1157.773824926901 R{4,6} + 1614.759663885629 R{4,7}
   + 1001.798051883206 R{4,8} + 1157.773824926901 R{4,9}
   + 1096.594137300857 R{4,10} + 1377.310606390811 R{4,11}
   + 1066.812638585514 R{4,12} + 665.0236327174914 R{4,13}
   + 653.5058678988478 R{4,14} + 481.7273481445734 R{4,15}
   + 636.3230835433963 R{4,16} + 440.9791403357586 R{4,17}
   + 1092.924501910626 R{4,18} + 1144.814166440379 R{4,19}
   + 1114.867455709484 R{4,20} + 903.4234678799585 R{4,21}
   + 1379.023708465018 R{4,22} + 1322.20588614273 R{4,23}
   + 1027.378301077773 R{4,24} - 231.9775664337766 R{5,0}
   + 357.5804114360171 R{5,1} + 942.0446328252956 R{5,2}
   + 402.6776551787916 R{5,3} + 450.8181748603515 R{5,4}
   + 526.2411767339561 R{5,5} + 379.1699787578673 R{5,6}
   + 1218.763023312752 R{5,7} + 330.3037953103419 R{5,8}
   + 407.5109398555743 R{5,9} + 206.9817785931505 R{5,10}
   + 935.0171012125395 R{5,11} + 294.5331473281791 R{5,12}
   + 866.1144926430113 R{5,13} - 231.1436095783099 R{6,0}
   + 1381.891878324568 R{6,1} + 2138.911397941406 R{6,2}
   + 2560.066428814385 R{6,3} + 1255.131128453988 R{6,4}
   + 1323.635403130354 R{6,5} + 1608.936651776537 R{6,6}
   + 947.7156399119594 R{6,7} + 2860.912079697716 R{6,8}
   + 1604.823548125031 R{6,9} + 1874.272392306291 R{6,10}
   + 1450.61477526315 R{6,11} + 1316.462277112853 R{6,12}
   + 1740.342833975089 R{6,13} + 1131.952682177451 R{6,14}
   + 1432.295453590354 R{6,15} + 3238.497281335031 R{6,16}
   + 1308.73055544159 R{6,17} + 2473.269835382432 R{6,18}
   + 1635.700301240118 R{6,19} + 1500.880109757308 R{6,20}
   + 2543.120496529742 R{6,21} + 990.5359972156305 R{6,22}
   + 2233.452021017041 R{6,23}
Subject To
 R00: R{0,0} <= 1
 R01: R{0,1} <= 1
 R02: R{0,2} <= 1
 R03: R{0,3} <= 1
 R04: R{0,4} <= 1
 R05: R{0,5} <= 1
 R06: R{0,6} <= 1
 R07: R{0,7} <= 1
 R08: R{0,8} <= 1
 R09: R{0,9} <= 1
 R010: R{0,10} <= 1
 R011: R{0,11} <= 1
 R012: R{0,12} <= 1
 R013: R{0,13} <= 1
 R014: R{0,14} <= 1
 R015: R{0,15} <= 1
 R016: R{0,16} <= 1
 R017: R{0,17} <= 1
 R018: R{0,18} <= 1
 R019: R{0,19} <= 1
 R020: R{0,20} <= 1
 R021: R{0,21} <= 1
 R022: R{0,22} <= 1
 R023: R{1,0} <= 1
 R024: R{1,1} <= 1
 R025: R{1,2} <= 1
 R026: R{1,3} <= 1
 R027: R{1,4} <= 1
 R028: R{1,5} <= 1
 R029: R{1,6} <= 1
 R030: R{1,7} <= 1
 R031: R{1,8} <= 1
 R032: R{1,9} <= 1
 R033: R{1,10} <= 1
 R034: R{1,11} <= 1
 R035: R{1,12} <= 1
 R036: R{1,13} <= 1
 R037: R{2,0} <= 1
 R038: R{2,1} <= 1
 R039: R{2,2} <= 1
 R040: R{2,3} <= 1
 R041: R{2,4} <= 1
 R042: R{2,5} <= 1
 R043: R{2,6} <= 1
 R044: R{2,7} <= 1
 R045: R{2,8} <= 1
 R046: R{2,9} <= 1
 R047: R{2,10} <= 1
 R048: R{2,11} <= 1
 R049: R{2,12} <= 1
 R050: R{2,13} <= 1
 R051: R{2,14} <= 1
 R052: R{3,0} <= 1
 R053: R{3,1} <= 1
 R054: R{3,2} <= 1
 R055: R{3,3} <= 1
 R056: R{3,4} <= 1
 R057: R{3,5} <= 1
 R058: R{3,6} <= 1
 R059: R{3,7} <= 1
 R060: R{3,8} <= 1
 R061: R{3,9} <= 1
 R062: R{3,10} <= 1
 R063: R{3,11} <= 1
 R064: R{4,0} <= 1
 R065: R{4,1} <= 1
 R066: R{4,2} <= 1
 R067: R{4,3} <= 1
 R068: R{4,4} <= 1
 R069: R{4,5} <= 1
 R070: R{4,6} <= 1
 R071: R{4,7} <= 1
 R072: R{4,8} <= 1
 R073: R{4,9} <= 1
 R074: R{4,10} <= 1
 R075: R{4,11} <= 1
 R076: R{4,12} <= 1
 R077: R{4,13} <= 1
 R078: R{4,14} <= 1
 R079: R{4,15} <= 1
 R080: R{4,16} <= 1
 R081: R{4,17} <= 1
 R082: R{4,18} <= 1
 R083: R{4,19} <= 1
 R084: R{4,20} <= 1
 R085: R{4,21} <= 1
 R086: R{4,22} <= 1
 R087: R{4,23} <= 1
 R088: R{4,24} <= 1
 R089: R{5,0} <= 1
 R090: R{5,1} <= 1
 R091: R{5,2} <= 1
 R092: R{5,3} <= 1
 R093: R{5,4} <= 1
 R094: R{5,5} <= 1
 R095: R{5,6} <= 1
 R096: R{5,7} <= 1
 R097: R{5,8} <= 1
 R098: R{5,9} <= 1
 R099: R{5,10} <= 1
 R0100: R{5,11} <= 1
 R0101: R{5,12} <= 1
 R0102: R{5,13} <= 1
 R0103: R{6,0} <= 1
 R0104: R{6,1} <= 1
 R0105: R{6,2} <= 1
 R0106: R{6,3} <= 1
 R0107: R{6,4} <= 1
 R0108: R{6,5} <= 1
 R0109: R{6,6} <= 1
 R0110: R{6,7} <= 1
 R0111: R{6,8} <= 1
 R0112: R{6,9} <= 1
 R0113: R{6,10} <= 1
 R0114: R{6,11} <= 1
 R0115: R{6,12} <= 1
 R0116: R{6,13} <= 1
 R0117: R{6,14} <= 1
 R0118: R{6,15} <= 1
 R0119: R{6,16} <= 1
 R0120: R{6,17} <= 1
 R0121: R{6,18} <= 1
 R0122: R{6,19} <= 1
 R0123: R{6,20} <= 1
 R0124: R{6,21} <= 1
 R0125: R{6,22} <= 1
 R0126: R{6,23} <= 1
 R1_0: R{0,0} + R{0,1} + R{0,2} + R{0,3} + R{0,4} + R{0,5} + R{0,6}
   + R{0,7} + R{0,8} + R{0,9} + R{0,10} + R{0,11} + R{0,12} + R{0,13}
   + R{0,14} + R{0,15} + R{0,16} + R{0,17} + R{0,18} + R{0,19} + R{0,20}
   + R{0,21} + R{0,22} <= 1
 R1_1: R{1,0} + R{1,1} + R{1,2} + R{1,3} + R{1,4} + R{1,5} + R{1,6}
   + R{1,7} + R{1,8} + R{1,9} + R{1,10} + R{1,11} + R{1,12} + R{1,13} <= 1
 R1_2: R{2,0} + R{2,1} + R{2,2} + R{2,3} + R{2,4} + R{2,5} + R{2,6}
   + R{2,7} + R{2,8} + R{2,9} + R{2,10} + R{2,11} + R{2,12} + R{2,13}
   + R{2,14} <= 1
 R1_3: R{3,0} + R{3,1} + R{3,2} + R{3,3} + R{3,4} + R{3,5} + R{3,6}
   + R{3,7} + R{3,8} + R{3,9} + R{3,10} + R{3,11} <= 1
 R1_4: R{4,0} + R{4,1} + R{4,2} + R{4,3} + R{4,4} + R{4,5} + R{4,6}
   + R{4,7} + R{4,8} + R{4,9} + R{4,10} + R{4,11} + R{4,12} + R{4,13}
   + R{4,14} + R{4,15} + R{4,16} + R{4,17} + R{4,18} + R{4,19} + R{4,20}
   + R{4,21} + R{4,22} + R{4,23} + R{4,24} <= 1
 R1_5: R{5,0} + R{5,1} + R{5,2} + R{5,3} + R{5,4} + R{5,5} + R{5,6}
   + R{5,7} + R{5,8} + R{5,9} + R{5,10} + R{5,11} + R{5,12} + R{5,13} <= 1
 R1_6: R{6,0} + R{6,1} + R{6,2} + R{6,3} + R{6,4} + R{6,5} + R{6,6}
   + R{6,7} + R{6,8} + R{6,9} + R{6,10} + R{6,11} + R{6,12} + R{6,13}
   + R{6,14} + R{6,15} + R{6,16} + R{6,17} + R{6,18} + R{6,19} + R{6,20}
   + R{6,21} + R{6,22} + R{6,23} <= 1
 R2_0: 7 R{0,0} + 7 R{0,1} + 7 R{0,2} + 7 R{0,7} + 7 R{0,10} + 7 R{0,12}
   + 7 R{0,14} + 7 R{0,15} + 7 R{0,16} + 7 R{0,18} + 7 R{0,19} + 7 R{0,20}
   + 7 R{0,21} + 7 R{0,22} <= 7
 R2_1: 10 R{0,11} + 10 R{2,6} + 10 R{3,1} + 10 R{3,2} + 10 R{3,4}
   + 10 R{3,5} + 10 R{3,7} + 10 R{3,9} + 10 R{3,10} + 10 R{3,11}
   + 10 R{5,6} + 10 R{5,7} + 10 R{5,12} <= 10
 R2_2: <= 0
 R2_3: 4 R{0,4} + 4 R{0,5} + 4 R{0,6} + 4 R{0,11} + 4 R{0,17} <= 4
 R2_4: <= 0
 R2_5: 5 R{0,4} + 5 R{0,5} + 5 R{0,6} <= 5
 R2_6: 10 R{0,17} + 10 R{1,1} + 10 R{1,3} + 10 R{1,5} + 10 R{1,6}
   + 10 R{1,7} + 10 R{1,8} + 10 R{1,10} + 10 R{1,11} + 10 R{1,12}
   + 10 R{1,13} + 10 R{2,11} + 10 R{5,5} + 10 R{5,8} + 10 R{5,10}
   + 10 R{5,12} + 10 R{6,20} <= 10
 R2_7: 6 R{1,1} + 6 R{1,2} + 6 R{1,3} + 6 R{1,4} + 6 R{1,6} + 6 R{1,7}
   + 6 R{1,9} <= 6
 R2_8: <= 0
 R2_9: 12 R{4,1} + 12 R{4,2} + 12 R{4,3} + 12 R{4,4} + 12 R{4,5}
   + 12 R{4,6} + 12 R{4,7} + 12 R{4,8} + 12 R{4,9} + 12 R{4,10}
   + 12 R{4,11} + 12 R{4,12} + 12 R{4,13} + 12 R{4,14} + 12 R{4,15}
   + 12 R{4,17} + 12 R{4,18} + 12 R{4,19} + 12 R{4,20} + 12 R{4,21}
   + 12 R{4,22} + 12 R{4,23} + 12 R{4,24} <= 12
 R2_10: 8 R{6,1} + 8 R{6,2} + 8 R{6,4} + 8 R{6,5} + 8 R{6,10} + 8 R{6,15}
   + 8 R{6,22} <= 8
 R2_11: <= 0
 R2_12: <= 0
 R2_13: <= 0
 R2_14: <= 0
 R2_15: 11 R{0,0} + 11 R{0,1} + 11 R{0,2} + 11 R{0,10} + 11 R{0,12}
   + 11 R{0,14} + 11 R{0,16} + 11 R{0,19} + 11 R{0,20} + 11 R{0,21}
   + 11 R{4,1} + 11 R{4,2} + 11 R{4,7} + 11 R{4,20} + 11 R{4,21} <= 11
 R2_16: <= 0
 R2_17: <= 0
 R2_18: <= 0
 R2_19: 11 R{0,8} + 11 R{0,9} + 11 R{0,10} + 11 R{0,13} + 11 R{1,4}
   + 11 R{4,1} + 11 R{4,2} + 11 R{4,3} + 11 R{4,4} + 11 R{4,7} + 11 R{4,20}
   + 11 R{5,4} + 11 R{6,10} + 11 R{6,23} <= 11
 R2_20: 13 R{0,14} + 13 R{1,7} + 13 R{1,10} + 13 R{1,13} + 13 R{2,2}
   + 13 R{2,3} + 13 R{2,5} + 13 R{2,8} + 13 R{2,12} + 13 R{2,13}
   + 13 R{3,9} + 13 R{5,9} + 13 R{6,1} + 13 R{6,2} + 13 R{6,3} + 13 R{6,4}
   + 13 R{6,6} + 13 R{6,8} + 13 R{6,9} + 13 R{6,13} + 13 R{6,15}
   + 13 R{6,16} + 13 R{6,18} + 13 R{6,19} + 13 R{6,21} <= 13
 R2_21: <= 0
 R2_22: 10 R{4,15} <= 10
 R2_23: 14 R{4,3} + 14 R{4,5} + 14 R{4,6} + 14 R{4,9} + 14 R{4,10}
   + 14 R{4,19} + 14 R{4,23} + 14 R{6,3} + 14 R{6,8} + 14 R{6,16} <= 14
 R2_24: 10 R{0,20} + 10 R{1,5} + 10 R{1,8} + 10 R{1,10} + 8 R{1,11}
   + 8 R{1,12} + 10 R{3,1} + 10 R{3,2} + 10 R{3,3} + 10 R{3,7} + 10 R{3,9}
   + 10 R{3,11} + 10 R{6,19} <= 10
 R2_25: 13 R{0,0} + 13 R{0,1} + 13 R{0,2} + 13 R{0,7} + 13 R{0,10}
   + 13 R{0,12} + 13 R{0,14} + 13 R{0,15} + 13 R{0,16} + 13 R{0,18}
   + 13 R{0,20} + 13 R{0,21} + 13 R{0,22} + 13 R{4,1} + 13 R{4,2}
   + 13 R{4,3} + 13 R{4,4} + 13 R{4,5} + 13 R{4,6} + 13 R{4,7} + 13 R{4,8}
   + 13 R{4,9} + 13 R{4,10} + 13 R{4,11} + 13 R{4,12} + 13 R{4,13}
   + 13 R{4,14} + 13 R{4,16} + 13 R{4,18} + 13 R{4,19} + 13 R{4,20}
   + 13 R{4,21} + 13 R{4,22} + 13 R{4,23} + 13 R{4,24} <= 13
 R2_26: 6 R{2,2} + 6 R{2,3} + 6 R{2,5} + 6 R{2,7} + 6 R{5,1} + 6 R{5,2}
   + 6 R{5,3} + 6 R{5,5} + 6 R{5,7} + 6 R{5,9} + 6 R{5,10} + 6 R{5,11}
   + 6 R{5,13} <= 6
 R2_27: 5 R{0,5} + 5 R{0,6} + 5 R{0,7} + 5 R{2,5} + 5 R{2,13} + 5 R{6,1}
   + 5 R{6,2} + 5 R{6,3} + 5 R{6,4} + 5 R{6,5} + 5 R{6,6} + 5 R{6,7}
   + 5 R{6,8} + 5 R{6,9} + 5 R{6,10} + 5 R{6,11} + 5 R{6,12} + 5 R{6,13}
   + 5 R{6,14} + 5 R{6,15} + 5 R{6,16} + 5 R{6,17} + 5 R{6,18} + 5 R{6,19}
   + 5 R{6,20} + 5 R{6,21} + 5 R{6,22} + 5 R{6,23} <= 5
 R2_28: <= 0
 R2_29: <= 0
 R2_30: <= 0
 R2_31: <= 0
 R2_32: 7 R{2,1} + 7 R{2,9} + 7 R{2,14} + 7 R{5,13} <= 7
 R2_33: 12 R{0,19} + 12 R{1,4} + 12 R{6,14} + 12 R{6,17} <= 12
 R2_34: 5 R{0,0} + 5 R{0,1} + 5 R{0,2} + 5 R{0,7} + 5 R{0,10} + 5 R{0,12}
   + 5 R{0,14} + 5 R{0,15} + 5 R{0,16} + 5 R{0,18} + 5 R{0,19} + 5 R{0,20}
   + 5 R{0,21} + 5 R{0,22} <= 5
 R2_35: <= 0
 R2_36: 15 R{0,4} + 15 R{0,5} + 15 R{0,6} + 15 R{0,8} + 15 R{0,9}
   + 15 R{0,11} + 15 R{0,17} <= 16
 R2_37: 5 R{3,1} + 5 R{3,2} + 5 R{3,3} + 5 R{3,4} + 5 R{3,5} + 5 R{3,7}
   + 5 R{3,10} + 5 R{3,11} <= 5
 R2_38: <= 0
 R2_39: 15 R{0,0} + 15 R{0,1} + 15 R{0,2} + 15 R{0,10} + 15 R{0,12}
   + 15 R{0,14} + 15 R{0,15} + 15 R{0,16} + 15 R{0,18} + 15 R{0,19}
   + 15 R{0,20} + 15 R{0,21} <= 17
 R2_40: 15 R{2,1} + 15 R{2,2} + 15 R{2,3} + 15 R{2,6} + 15 R{2,8}
   + 15 R{2,9} + 15 R{2,11} + 15 R{2,14} <= 15
 R2_41: 5 R{0,0} + 5 R{0,1} + 5 R{0,2} + 5 R{0,7} + 5 R{0,10} + 5 R{0,14}
   + 5 R{0,15} + 5 R{0,21} + 5 R{3,3} + 5 R{3,8} + 5 R{3,10} + 5 R{4,14}
   + 5 R{4,21} + 5 R{4,22} + 5 R{4,24} + 5 R{6,8} + 5 R{6,11} + 5 R{6,13}
   + 5 R{6,16} + 5 R{6,19} + 5 R{6,20} <= 5
 R2_42: 4 R{2,1} + 4 R{2,4} + 4 R{2,9} + 4 R{2,14} <= 4
 R2_43: <= 0
 R2_44: <= 0
 R2_45: <= 0
 R2_46: 9 R{0,7} + 9 R{0,22} + 9 R{4,4} + 9 R{4,11} + 9 R{4,12} + 9 R{4,15}
   + 9 R{4,18} + 9 R{4,22} + 9 R{4,24} <= 9
 R2_47: 7 R{0,0} + 7 R{0,1} + 7 R{0,2} + 7 R{0,16} + 7 R{0,18} + 7 R{0,19}
   + 7 R{0,22} + 7 R{5,1} + 7 R{5,2} + 7 R{5,3} + 7 R{5,4} + 7 R{5,6}
   + 7 R{5,13} <= 7
 R2_48: 4 R{4,1} + 4 R{4,2} + 4 R{4,3} + 4 R{4,4} + 4 R{4,5} + 4 R{4,6}
   + 4 R{4,7} + 4 R{4,9} + 4 R{4,10} + 4 R{4,12} + 4 R{4,14} + 4 R{4,18}
   + 4 R{4,19} + 4 R{4,20} + 4 R{4,21} + 4 R{4,22} + 4 R{4,23} + 4 R{4,24}
   <= 4
 R2_49: <= 0
 R2_50: <= 0
 R2_51: 11 R{1,4} + 11 R{1,6} + 11 R{4,1} + 11 R{4,3} + 11 R{4,4}
   + 11 R{4,5} + 11 R{4,6} + 11 R{4,9} + 11 R{4,12} + 11 R{4,18}
   + 8 R{4,19} + 11 R{4,20} + 11 R{4,22} <= 11
 R2_52: 10 R{4,17} <= 10
 R2_53: 13 R{4,1} + 13 R{4,2} + 13 R{4,3} + 13 R{4,4} + 13 R{4,5}
   + 13 R{4,6} + 13 R{4,7} + 13 R{4,8} + 13 R{4,9} + 13 R{4,11}
   + 13 R{4,12} + 13 R{4,15} + 13 R{4,18} + 13 R{4,19} + 13 R{4,20} <= 13
 R2_54: 9 R{3,1} + 9 R{3,2} + 9 R{3,3} + 9 R{3,4} + 9 R{3,7} + 9 R{3,8}
   + 9 R{3,10} + 9 R{3,11} <= 9
 R2_55: 8 R{1,9} + 8 R{3,11} + 8 R{6,1} + 8 R{6,2} + 8 R{6,3} + 8 R{6,8}
   + 8 R{6,9} + 8 R{6,10} + 8 R{6,11} + 8 R{6,12} + 8 R{6,15} + 8 R{6,16}
   + 8 R{6,18} + 8 R{6,20} + 8 R{6,21} + 8 R{6,22} + 8 R{6,23} <= 8
 R2_56: 6 R{0,1} + 6 R{0,2} + 6 R{0,7} + 6 R{0,10} + 6 R{0,14} + 6 R{0,15}
   + 6 R{0,16} + 6 R{0,18} + 6 R{0,21} + 6 R{0,22} + 6 R{4,10} + 6 R{4,13}
   + 6 R{4,16} + 6 R{4,17} + 6 R{4,23} + 6 R{6,6} + 6 R{6,7} + 6 R{6,9}
   + 6 R{6,11} + 6 R{6,13} + 6 R{6,14} + 6 R{6,17} + 6 R{6,19} + 6 R{6,21}
   + 6 R{6,23} <= 6
 R2_57: <= 0
 R2_58: <= 0
 R2_59: <= 0
 R2_60: <= 0
 R2_61: <= 0
 R2_62: <= 0
 R2_63: <= 0
 R2_64: <= 0
 R2_65: 5 R{6,1} + 5 R{6,2} + 5 R{6,3} + 5 R{6,4} + 5 R{6,5} + 5 R{6,6}
   + 5 R{6,7} + 5 R{6,8} + 5 R{6,9} + 5 R{6,10} + 5 R{6,11} + 5 R{6,12}
   + 5 R{6,13} + 5 R{6,14} + 5 R{6,15} + 5 R{6,16} + 5 R{6,17} + 5 R{6,18}
   + 5 R{6,20} + 5 R{6,21} + 5 R{6,22} + 5 R{6,23} <= 5
 R2_66: 7 R{1,12} + 7 R{6,1} + 7 R{6,2} + 7 R{6,3} + 7 R{6,4} + 7 R{6,6}
   + 7 R{6,8} + 7 R{6,9} + 7 R{6,11} + 7 R{6,13} + 7 R{6,14} + 7 R{6,15}
   + 7 R{6,16} + 7 R{6,17} + 7 R{6,18} + 7 R{6,20} + 7 R{6,21} + 7 R{6,22}
   <= 7
 R2_67: 3 R{0,18} + 3 R{4,16} + 3 R{6,16} <= 3
 R2_68: 6 R{6,1} + 6 R{6,2} + 6 R{6,3} + 6 R{6,4} + 6 R{6,5} + 6 R{6,6}
   + 6 R{6,7} + 6 R{6,8} + 6 R{6,10} + 6 R{6,15} + 6 R{6,16} + 6 R{6,17}
   + 6 R{6,18} + 6 R{6,20} + 6 R{6,21} + 6 R{6,22} + 6 R{6,23} <= 6
 R2_69: 7 R{0,0} + 7 R{0,1} + 7 R{0,2} + 7 R{0,7} + 7 R{0,10} + 7 R{0,12}
   + 7 R{0,14} + 7 R{0,15} + 7 R{0,16} + 7 R{0,18} + 7 R{0,19} + 7 R{0,20}
   + 7 R{0,21} + 7 R{0,22} + 7 R{4,1} + 7 R{4,2} + 7 R{4,3} + 7 R{4,4}
   + 7 R{4,5} + 7 R{4,6} + 7 R{4,7} + 7 R{4,8} + 7 R{4,9} + 7 R{4,11}
   + 7 R{4,12} + 7 R{4,13} + 7 R{4,18} + 7 R{4,19} + 7 R{4,20} + 7 R{4,21}
   + 7 R{4,22} + 7 R{4,23} <= 7
 R2_70: 11 R{1,1} + 11 R{1,2} + 11 R{1,3} <= 11
 R2_71: 7 R{1,13} + 7 R{3,1} + 7 R{3,4} + 7 R{3,5} + 7 R{3,10} <= 7
 R2_72: <= 0
 R2_73: 11 R{0,0} + 11 R{0,1} + 11 R{0,2} + 11 R{0,7} + 11 R{0,10}
   + 11 R{0,12} + 11 R{0,14} + 11 R{0,15} + 11 R{0,16} + 11 R{0,19}
   + 11 R{0,20} + 11 R{0,21} + 11 R{0,22} <= 11
 R2_74: 5 R{5,1} + 5 R{5,3} <= 5
 R2_75: 8 R{6,1} + 8 R{6,2} + 8 R{6,3} + 8 R{6,4} + 8 R{6,5} + 8 R{6,6}
   + 8 R{6,7} + 8 R{6,9} + 8 R{6,10} + 8 R{6,12} + 8 R{6,15} + 8 R{6,18}
   + 8 R{6,21} + 8 R{6,22} + 8 R{6,23} <= 8
 R2_76: 12 R{2,2} + 12 R{2,3} + 12 R{2,5} + 12 R{2,7} + 12 R{2,8}
   + 12 R{2,12} + 12 R{2,13} + 12 R{5,1} + 12 R{5,2} + 12 R{5,3}
   + 12 R{5,4} + 12 R{5,5} + 12 R{5,6} + 12 R{5,7} + 12 R{5,8} + 12 R{5,11}
   + 12 R{6,18} <= 12
 R2_77: 7 R{0,1} + 7 R{0,2} + 7 R{0,5} + 7 R{0,6} + 7 R{0,8} + 7 R{0,12}
   + 7 R{0,13} + 7 R{0,15} + 7 R{0,17} + 7 R{1,2} + 7 R{1,3} + 7 R{1,8}
   + 7 R{1,9} + 7 R{1,11} + 7 R{2,2} + 7 R{2,4} + 7 R{2,7} + 7 R{2,10}
   + 7 R{3,2} + 7 R{3,6} + 7 R{3,7} + 7 R{3,8} + 7 R{3,11} + 7 R{4,2}
   + 7 R{4,7} + 7 R{4,8} + 7 R{4,11} + 7 R{5,2} + 7 R{5,7} + 7 R{5,11}
   + 7 R{5,13} + 7 R{6,2} + 7 R{6,3} + 7 R{6,5} + 7 R{6,8} + 7 R{6,10}
   + 7 R{6,12} + 7 R{6,16} + 7 R{6,18} + 7 R{6,21} + 7 R{6,23} <= 7
Bounds
End
